(set-logic LIA)
(set-info :license "https://creativecommons.org/licenses/by/4.0/")
(set-info :status "unknown")
(set-info :smt-lib-version "2.6")
(declare-fun old(~a1~0) () Int)
(declare-fun ~a10~0 () Int)
(declare-fun ~a1~0 () Int)
(assert
  (and
    (= (* 1 reminder_5) 0)
    (<= (* (- 1) ~a10~0) (- 1))
    (not
      (and
        (<= (* (- 1) ~a10~0) (- 1))
        (exists ((v_~a1~0_455 Int) (quotient_1 Int) (quotient_0 Int))
          (and
            (<= (* (- 1) quotient_0) 0)
            (<= (* (- 1) v_~a1~0_455) 0)
            (<= (+ (* 1 old(~a1~0)) (* (- 1) v_~a1~0_455)) 0)
            (<= (+ (* (- 1) ~a1~0) (* 1 quotient_1)) (- 505228))
            (<= (+ (* (- 1) v_~a1~0_455) (* 5 quotient_0)) 0)
            (<= (+ (* 1 v_~a1~0_455) (* (- 5) quotient_0)) 4)
            (<= (+ (* (- 5) quotient_0) (* 5 quotient_1)) 0)
            (<= (+ (* 5 quotient_0) (* (- 5) quotient_1)) 4)
          )
        )
      )
    )
    (not
      (and
        (<= (* (- 1) ~a10~0) (- 1))
        (= (* 1 reminder_5) 0)
        (exists ((v_~a1~0_455 Int) (reminder_2 Int) (quotient_3 Int) (quotient_4 Int))
          (and
            (= (* 1 reminder_2) 0)
            (<= (* (- 1) quotient_3) 0)
            (<= (+ (* 1 old(~a1~0)) (* (- 1) v_~a1~0_455)) 0)
            (<= (+ (* (- 1) ~a1~0) (* 1 quotient_4)) (- 505228))
            (= (+ (* 1 v_~a1~0_455) (* (- 1) reminder_2) (* (- 5) quotient_3)) 0)
            (<= (+ (* (- 5) quotient_3) (* 5 quotient_4)) 0)
            (<= (+ (* 5 quotient_3) (* (- 5) quotient_4)) 4)
          )
        )
      )
    )
    (not
      (and
        (<= (* (- 1) ~a10~0) (- 1))
        (= (* 1 reminder_5) 0)
        (exists ((v_~a1~0_455 Int) (quotient_6 Int) (reminder_7 Int) (quotient_8 Int))
          (and
            (<= (* (- 1) quotient_6) 1)
            (<= (* 1 v_~a1~0_455) (- 1))
            (<= (* (- 1) reminder_7) 0)
            (<= (* 1 reminder_7) 4)
            (<= (+ (* 1 old(~a1~0)) (* (- 1) v_~a1~0_455)) 0)
            (not
              (= (* 1 reminder_7) 0)
            )
            (<= (+ (* (- 1) ~a1~0) (* 1 quotient_8)) (- 505228))
            (= (+ (* 1 v_~a1~0_455) (* (- 5) quotient_6) (* (- 1) reminder_7)) 0)
            (<= (+ (* (- 5) quotient_6) (* 5 quotient_8)) 5)
            (<= (+ (* 5 quotient_6) (* (- 5) quotient_8)) (- 1))
          )
        )
      )
    )
    (not
      (and
        (<= (* (- 1) ~a10~0) (- 1))
        (= (* 1 reminder_5) 0)
        (exists ((v_~a1~0_455 Int) (quotient_9 Int) (reminder_10 Int) (quotient_11 Int))
          (and
            (<= (* (- 1) quotient_9) 0)
            (<= (* 1 v_~a1~0_455) (- 1))
            (<= (* (- 1) reminder_10) 0)
            (<= (* 1 reminder_10) 4)
            (<= (+ (* 1 old(~a1~0)) (* (- 1) v_~a1~0_455)) 0)
            (not
              (= (* 1 reminder_10) 0)
            )
            (<= (+ (* (- 1) ~a1~0) (* 1 quotient_11)) (- 505228))
            (= (+ (* 1 v_~a1~0_455) (* (- 5) quotient_9) (* (- 1) reminder_10)) 0)
            (<= (+ (* (- 5) quotient_9) (* 5 quotient_11)) 5)
            (<= (+ (* 5 quotient_9) (* (- 5) quotient_11)) (- 1))
          )
        )
      )
    )
    (not
      (and
        (<= (* (- 1) ~a10~0) (- 1))
        (exists ((v_~a1~0_455 Int) (quotient_14 Int) (reminder_12 Int) (quotient_13 Int))
          (and
            (= (* 1 reminder_12) 0)
            (<= (* (- 1) quotient_13) 0)
            (<= (+ (* 1 old(~a1~0)) (* (- 1) v_~a1~0_455)) 0)
            (<= (+ (* (- 1) ~a1~0) (* 1 quotient_14)) (- 505228))
            (= (+ (* 1 v_~a1~0_455) (* (- 1) reminder_12) (* (- 5) quotient_13)) 0)
            (<= (+ (* (- 5) quotient_13) (* 5 quotient_14)) 0)
            (<= (+ (* 5 quotient_13) (* (- 5) quotient_14)) 4)
          )
        )
      )
    )
    (not
      (and
        (<= (* (- 1) ~a10~0) (- 1))
        (exists ((v_~a1~0_455 Int) (quotient_15 Int) (reminder_16 Int) (quotient_17 Int))
          (and
            (<= (* (- 1) quotient_15) 0)
            (<= (* 1 v_~a1~0_455) (- 1))
            (<= (* (- 1) reminder_16) 0)
            (<= (* 1 reminder_16) 4)
            (<= (+ (* 1 old(~a1~0)) (* (- 1) v_~a1~0_455)) 0)
            (not
              (= (* 1 reminder_16) 0)
            )
            (<= (+ (* (- 1) ~a1~0) (* 1 quotient_17)) (- 505228))
            (= (+ (* 1 v_~a1~0_455) (* (- 5) quotient_15) (* (- 1) reminder_16)) 0)
            (<= (+ (* (- 5) quotient_15) (* 5 quotient_17)) 5)
            (<= (+ (* 5 quotient_15) (* (- 5) quotient_17)) (- 1))
          )
        )
      )
    )
    (not
      (and
        (<= (* (- 1) ~a10~0) (- 1))
        (= (* 1 reminder_5) 0)
        (exists ((v_~a1~0_455 Int) (quotient_18 Int) (quotient_19 Int))
          (and
            (<= (* (- 1) quotient_18) 0)
            (<= (* (- 1) v_~a1~0_455) 0)
            (<= (+ (* 1 old(~a1~0)) (* (- 1) v_~a1~0_455)) 0)
            (<= (+ (* (- 1) ~a1~0) (* 1 quotient_19)) (- 505228))
            (<= (+ (* (- 1) v_~a1~0_455) (* 5 quotient_18)) 0)
            (<= (+ (* 1 v_~a1~0_455) (* (- 5) quotient_18)) 4)
            (<= (+ (* (- 5) quotient_18) (* 5 quotient_19)) 0)
            (<= (+ (* 5 quotient_18) (* (- 5) quotient_19)) 4)
          )
        )
      )
    )
    (not
      (and
        (<= (* (- 1) ~a10~0) (- 1))
        (exists ((v_~a1~0_455 Int) (quotient_22 Int) (reminder_20 Int) (quotient_21 Int))
          (and
            (= (* 1 reminder_20) 0)
            (<= (+ (* 1 old(~a1~0)) (* (- 1) v_~a1~0_455)) 0)
            (<= (+ (* (- 1) ~a1~0) (* 1 quotient_22)) (- 505228))
            (= (+ (* 1 v_~a1~0_455) (* (- 1) reminder_20) (* (- 5) quotient_21)) 0)
            (<= (+ (* (- 5) quotient_21) (* 5 quotient_22)) 0)
            (<= (+ (* 5 quotient_21) (* (- 5) quotient_22)) 4)
          )
        )
      )
    )
    (exists ((v_~a1~0_455 Int) (reminder_23 Int) (quotient_24 Int) (quotient_25 Int))
      (and
        (<= (* 1 v_~a1~0_455) (- 1))
        (<= (* (- 1) reminder_23) 0)
        (<= (* 1 reminder_23) 4)
        (<= (+ (* 1 old(~a1~0)) (* (- 1) v_~a1~0_455)) 0)
        (not
          (= (* 1 reminder_23) 0)
        )
        (<= (+ (* (- 1) ~a1~0) (* 1 quotient_25)) (- 505228))
        (= (+ (* 1 v_~a1~0_455) (* (- 1) reminder_23) (* (- 5) quotient_24)) 0)
        (<= (+ (* (- 5) quotient_24) (* 5 quotient_25)) 5)
        (<= (+ (* 5 quotient_24) (* (- 5) quotient_25)) (- 1))
      )
    )
  )
)
(check-sat)

